3 48 1 10
18 15 14 15 9 20 11 2 5 6 18 3 13 10 2 7 16 12 20 9 19 15 14 10 13 1 20 5 16 19 8 17 18 14 19 8 9 4 8 2 11 9 4 1 17 3 5 5 
11.88 4.4 5.68 0.39 4.34 12.86 13.39 5.95 15.67 2.61 5.56 8.14 14.84 8.65 3.02 10.13 6.42 6.65 5.76 11.9 9.86 12.43 5.67 1.2 4.03 3.87 10.37 10.23 7.5 9.06 11.17 4.47 8.72 6.13 6.5 11.31 8.03 11.63 13.22 12.29 11.61 15.89 5.38 8.56 7.75 7.23 0.5 4.04 
8 8 8 8 8 8 8 8 8 8 8 8 8 8 8 8 8 8 8 8 8 8 8 8 8 8 8 8 8 8 8 8 8 8 8 8 8 8 8 8 8 8 8 8 8 8 8 8 
14.14 7.61 15.51 2.13 12.03 8.18 14.19 7.52 2.71 3.51 5.67 4 2.24 1.82 0.84 2.36 6.07 14.71 8.66 1.89 12.83 5.65 13.92 3.32 3.89 1.67 13.93 12.32 14.49 5.66 9.81 9.75 12.55 13.43 15.3 9.38 8.33 13.06 1.92 7.84 3.04 13.53 9.51 7.85 10.93 9.09 6.25 8.15 
1 1 1 1 1 1 1 1 1 1 1 1 1 1 1 1 1 1 1 1 1 1 1 1 1 1 1 1 1 1 1 1 1 1 1 1 1 1 1 1 1 1 1 1 1 1 1 1 
1 1 1 1 1 1 1 1 1 1 1 1 1 1 1 1 1 1 1 1 1 1 1 1 1 1 1 1 1 1 1 1 1 1 1 1 1 1 1 1 1 1 1 1 1 1 1 1 
1 1 1 1 1 1 1 1 1 1 1 1 1 1 1 1 1 1 1 1 1 1 1 1 1 1 1 1 1 1 1 1 1 1 1 1 1 1 1 1 1 1 1 1 1 1 1 1 
0.01 0.01 0.01 0.01 0.01 0.01 0.01 0.01 0.01 0.01 0.01 0.01 0.01 0.01 0.01 0.01 0.01 0.01 0.01 0.01 0.01 0.01 0.01 0.01 0.01 0.01 0.01 0.01 0.01 0.01 0.01 0.01 0.01 0.01 0.01 0.01 0.01 0.01 0.01 0.01 0.01 0.01 0.01 0.01 0.01 0.01 0.01 0.01 
0.02 0.02 0.02 0.02 0.02 0.02 0.02 0.02 0.02 0.02 0.02 0.02 0.02 0.02 0.02 0.02 0.02 0.02 0.02 0.02 0.02 0.02 0.02 0.02 0.02 0.02 0.02 0.02 0.02 0.02 0.02 0.02 0.02 0.02 0.02 0.02 0.02 0.02 0.02 0.02 0.02 0.02 0.02 0.02 0.02 0.02 0.02 0.02 
1 1 1 1 1 1 1 1 1 1 1 1 1 1 1 1 1 1 1 1 1 1 1 1 1 1 1 1 1 1 1 1 1 1 1 1 1 1 1 1 1 1 1 1 1 1 1 1 
